
Log started (V11.0.0) Wed Apr 16 17:46:19 2008

Tried aggregator 1 time.
Reduced MIP has 120 rows, 2001 columns, and 4020 nonzeros.
Presolve time =    0.02 sec.
Clique table members: 100.
MIP emphasis: balance optimality and feasibility.
MIP search method: dynamic search.
Parallel mode: none, using 1 thread.
Root relaxation solution time =    0.05 sec.

        Nodes                                         Cuts/
   Node  Left     Objective  IInf  Best Integer     Best Node    ItCnt     Gap

*     0+    0                        14400.0000      522.2199      284   96.37%
*     0+    0                          540.0000      522.2199      284    3.29%
      0     0      524.8967    40      540.0000      Fract: 6      318    2.80%
      0     0      525.1469    50      540.0000      Cuts: 10      353    2.75%
      0     0      525.1615    57      540.0000       Cuts: 5      371    2.75%
      0     0      525.1809    59      540.0000     Covers: 2      379    2.74%
      0     2      526.0000    51      540.0000      525.1809      379    2.74%
    100    92      528.0000    34      540.0000      526.0000     2146    2.59%
    200   171      534.0000    30      540.0000      526.0000     5211    2.59%
    300   225        cutoff            540.0000      526.0000     7857    2.59%
    400   299      528.0000    32      540.0000      526.0000     9380    2.59%
*   471+  238                          537.0000      534.6754    12611    0.43%

Cover cuts applied:  28
Mixed integer rounding cuts applied:  5
Gomory fractional cuts applied:  2

Solution pool: 3 solutions saved.

MIP - Integer optimal solution:  Objective = 5.3700000000e+002
Solution time =    4.64 sec.  Iterations = 11511  Nodes = 471


Incumbent solution
Variable Name           Solution Value
Cmax                        537.000000
X_1_17                        1.000000
X_2_1                         1.000000
X_3_16                        1.000000
X_4_19                        1.000000
X_5_2                         1.000000
X_6_15                        1.000000
X_7_6                         1.000000
X_8_8                         1.000000
X_9_18                        1.000000
X_10_17                       1.000000
X_11_5                        1.000000
X_12_19                       1.000000
X_13_9                        1.000000
X_14_4                        1.000000
X_15_5                        1.000000
X_16_10                       1.000000
X_17_10                       1.000000
X_18_12                       1.000000
X_19_1                        1.000000
X_20_18                       1.000000
X_21_9                        1.000000
X_22_2                        1.000000
X_23_3                        1.000000
X_24_6                        1.000000
X_25_15                       1.000000
X_26_13                       1.000000
X_27_8                        1.000000
X_28_20                       1.000000
X_29_13                       1.000000
X_30_20                       1.000000
X_31_20                       1.000000
X_32_10                       1.000000
X_33_18                       1.000000
X_34_12                       1.000000
X_35_11                       1.000000
X_36_8                        1.000000
X_37_11                       1.000000
X_38_3                        1.000000
X_39_11                       1.000000
X_40_15                       1.000000
X_41_6                        1.000000
X_42_18                       1.000000
X_43_19                       1.000000
X_44_3                        1.000000
X_45_4                        1.000000
X_46_2                        1.000000
X_47_3                        1.000000
X_48_14                       1.000000
X_49_17                       1.000000
X_50_12                       1.000000
X_51_9                        1.000000
X_52_5                        1.000000
X_53_8                        1.000000
X_54_5                        1.000000
X_55_1                        1.000000
X_56_2                        1.000000
X_57_2                        1.000000
X_58_13                       1.000000
X_59_4                        1.000000
X_60_8                        1.000000
X_61_10                       1.000000
X_62_1                        1.000000
X_63_15                       1.000000
X_64_19                       1.000000
X_65_3                        1.000000
X_66_19                       1.000000
X_67_7                        1.000000
X_68_7                        1.000000
X_69_13                       1.000000
X_70_6                        1.000000
X_71_4                        1.000000
X_72_5                        1.000000
X_73_7                        1.000000
X_74_15                       1.000000
X_75_16                       1.000000
X_76_4                        1.000000
X_77_1                        1.000000
X_78_14                       1.000000
X_79_14                       1.000000
X_80_14                       1.000000
X_81_17                       1.000000
X_82_18                       1.000000
X_83_11                       1.000000
X_84_10                       1.000000
X_85_17                       1.000000
X_86_13                       1.000000
X_87_16                       1.000000
X_88_16                       1.000000
X_89_20                       1.000000
X_90_9                        1.000000
X_91_20                       1.000000
X_92_6                        1.000000
X_93_11                       1.000000
X_94_7                        1.000000
X_95_16                       1.000000
X_96_14                       1.000000
X_97_7                        1.000000
X_98_12                       1.000000
X_99_9                        1.000000
X_100_12                      1.000000
All other variables in the range 1-2001 are 0.
